NAME : random_7
COMMENT : 36 random nodes
TYPE : TSP
DIMENSION : 36
EDGE_WEIGHT_TYPE : EUC_2D
NODE_COORD_SECTION
1 -2336 -551
2 -1330 693
3 3032 3133
4 -120 2402
5 2531 2438
6 1538 3540
7 2399 4206
8 4431 -1832
9 4518 792
10 -507 3776
11 -609 1599
12 3658 239
13 -1029 2769
14 3605 2713
15 2982 4055
16 1202 62
17 -2585 1687
18 4361 2275
19 1231 1973
20 3214 3748
21 -2595 4570
22 -2055 -1387
23 -1085 -582
24 1429 -2076
25 -1356 425
26 -1476 2801
27 3046 906
28 1180 -336
29 2738 3050
30 918 1579
31 -2114 155
32 930 -2560
33 -918 2160
34 4071 4033
35 4464 2944
36 1704 -1357
EOF